letting n =  10
letting blocks =  [[1, 2], [1, 8], [1, 9], [2, 2], [2, 5], [3, 2], [3, 4], [3, 6], [3, 7], [3, 10], [4, 5], [4, 6], [4, 8], [4, 9], [5, 3], [5, 5], [5, 8], [6, 3], [6, 5], [6, 6], [6, 7], [6, 10], [7, 2], [7, 5], [7, 6], [8, 6], [9, 2], [9, 7], [9, 9], [9, 10], [10, 1], [10, 3], [10, 4], [10, 5], [10, 8], [10, 10]]
